\ Model Grouping-Optimization
\ LP format - for model browsing. Use MPS format to capture full model detail.
Minimize
  100 group[0] + 100 group[1] + 100 group[2] - group_lb[0] - group_lb[1]
   - group_lb[2] + group_ub[0] + group_ub[1] + group_ub[2]
Subject To
 R0: x[0,0,0] + x[1,0,0] + x[2,0,0] = 0
 R1: x[0,0,1] + x[1,0,1] + x[2,0,1] = 1
 R2: x[0,0,2] + x[1,0,2] + x[2,0,2] = 1
 R3: x[0,0,3] + x[1,0,3] + x[2,0,3] = 1
 R4: x[0,1,0] + x[1,1,0] + x[2,1,0] = 1
 R5: x[0,1,1] + x[1,1,1] + x[2,1,1] = 1
 R6: x[0,1,2] + x[1,1,2] + x[2,1,2] = 1
 R7: x[0,1,3] + x[1,1,3] + x[2,1,3] = 0
 R8: x[0,2,0] + x[1,2,0] + x[2,2,0] = 1
 R9: x[0,2,1] + x[1,2,1] + x[2,2,1] = 1
 R10: x[0,2,2] + x[1,2,2] + x[2,2,2] = 0
 R11: x[0,2,3] + x[1,2,3] + x[2,2,3] = 0
 R12: group_lb[0] - group_ub[0] + group_range[0] = 0
 R13: - x[0,0,0] + col_in_group[0,0] >= 0
 R14: - x[0,0,0] + level_in_group[0,0] >= 0
 R15: - x[0,0,0] + group[0] >= 0
 R16: - x[0,0,1] + col_in_group[0,0] >= 0
 R17: - x[0,0,1] + level_in_group[0,1] >= 0
 R18: - x[0,0,1] + group[0] >= 0
 R19: - x[0,0,2] + col_in_group[0,0] >= 0
 R20: - x[0,0,2] + level_in_group[0,2] >= 0
 R21: - x[0,0,2] + group[0] >= 0
 R22: - x[0,0,3] + col_in_group[0,0] >= 0
 R23: - x[0,0,3] + level_in_group[0,3] >= 0
 R24: - x[0,0,3] + group[0] >= 0
 R25: - x[0,1,0] + col_in_group[0,1] >= 0
 R26: - x[0,1,0] + level_in_group[0,0] >= 0
 R27: - x[0,1,0] + group[0] >= 0
 R28: - x[0,1,1] + col_in_group[0,1] >= 0
 R29: - x[0,1,1] + level_in_group[0,1] >= 0
 R30: - x[0,1,1] + group[0] >= 0
 R31: - x[0,1,2] + col_in_group[0,1] >= 0
 R32: - x[0,1,2] + level_in_group[0,2] >= 0
 R33: - x[0,1,2] + group[0] >= 0
 R34: - x[0,1,3] + col_in_group[0,1] >= 0
 R35: - x[0,1,3] + level_in_group[0,3] >= 0
 R36: - x[0,1,3] + group[0] >= 0
 R37: - x[0,2,0] + col_in_group[0,2] >= 0
 R38: - x[0,2,0] + level_in_group[0,0] >= 0
 R39: - x[0,2,0] + group[0] >= 0
 R40: - x[0,2,1] + col_in_group[0,2] >= 0
 R41: - x[0,2,1] + level_in_group[0,1] >= 0
 R42: - x[0,2,1] + group[0] >= 0
 R43: - x[0,2,2] + col_in_group[0,2] >= 0
 R44: - x[0,2,2] + level_in_group[0,2] >= 0
 R45: - x[0,2,2] + group[0] >= 0
 R46: - x[0,2,3] + col_in_group[0,2] >= 0
 R47: - x[0,2,3] + level_in_group[0,3] >= 0
 R48: - x[0,2,3] + group[0] >= 0
 R49: - group_ub[0] <= 0
 R50: - 6 level_in_group[0,0] - group_lb[0] >= -6
 R51: group_lb[0] + 6 Zl[0,0] >= 1
 R52: - group_lb[0] - 6 Zl[0,0] >= -6
 R53: - group_ub[0] + 6 Zu[0,0] >= 1
 R54: group_ub[0] - 6 Zu[0,0] >= -6
 R55: level_in_group[0,0] - Zu[0,0] - Zl[0,0] >= -1
 R56: - x[0,0,0] + col_in_group[0,0] + level_in_group[0,0] <= 1
 R57: - x[0,1,0] + col_in_group[0,1] + level_in_group[0,0] <= 1
 R58: - x[0,2,0] + col_in_group[0,2] + level_in_group[0,0] <= 1
 R59: level_in_group[0,1] - group_ub[0] <= 0
 R60: - 5 level_in_group[0,1] - group_lb[0] >= -6
 R61: group_lb[0] + 6 Zl[0,1] >= 2
 R62: - group_lb[0] - 6 Zl[0,1] >= -7
 R63: - group_ub[0] + 6 Zu[0,1] >= 0
 R64: group_ub[0] - 6 Zu[0,1] >= -5
 R65: level_in_group[0,1] - Zu[0,1] - Zl[0,1] >= -1
 R66: - x[0,0,1] + col_in_group[0,0] + level_in_group[0,1] <= 1
 R67: - x[0,1,1] + col_in_group[0,1] + level_in_group[0,1] <= 1
 R68: - x[0,2,1] + col_in_group[0,2] + level_in_group[0,1] <= 1
 R69: 2 level_in_group[0,2] - group_ub[0] <= 0
 R70: - 4 level_in_group[0,2] - group_lb[0] >= -6
 R71: group_lb[0] + 6 Zl[0,2] >= 3
 R72: - group_lb[0] - 6 Zl[0,2] >= -8
 R73: - group_ub[0] + 6 Zu[0,2] >= -1
 R74: group_ub[0] - 6 Zu[0,2] >= -4
 R75: level_in_group[0,2] - Zu[0,2] - Zl[0,2] >= -1
 R76: - x[0,0,2] + col_in_group[0,0] + level_in_group[0,2] <= 1
 R77: - x[0,1,2] + col_in_group[0,1] + level_in_group[0,2] <= 1
 R78: - x[0,2,2] + col_in_group[0,2] + level_in_group[0,2] <= 1
 R79: 3 level_in_group[0,3] - group_ub[0] <= 0
 R80: - 3 level_in_group[0,3] - group_lb[0] >= -6
 R81: group_lb[0] + 6 Zl[0,3] >= 4
 R82: - group_lb[0] - 6 Zl[0,3] >= -9
 R83: - group_ub[0] + 6 Zu[0,3] >= -2
 R84: group_ub[0] - 6 Zu[0,3] >= -3
 R85: level_in_group[0,3] - Zu[0,3] - Zl[0,3] >= -1
 R86: - x[0,0,3] + col_in_group[0,0] + level_in_group[0,3] <= 1
 R87: - x[0,1,3] + col_in_group[0,1] + level_in_group[0,3] <= 1
 R88: - x[0,2,3] + col_in_group[0,2] + level_in_group[0,3] <= 1
 R89: - group_ub[1] <= 0
 R90: - 6 level_in_group[1,0] - group_lb[1] >= -6
 R91: group_lb[1] + 6 Zl[1,0] >= 1
 R92: - group_lb[1] - 6 Zl[1,0] >= -6
 R93: - group_ub[1] + 6 Zu[1,0] >= 1
 R94: group_ub[1] - 6 Zu[1,0] >= -6
 R95: level_in_group[1,0] - Zu[1,0] - Zl[1,0] >= -1
 R96: - x[1,0,0] + col_in_group[1,0] + level_in_group[1,0] <= 1
 R97: - x[1,1,0] + col_in_group[1,1] + level_in_group[1,0] <= 1
 R98: - x[1,2,0] + col_in_group[1,2] + level_in_group[1,0] <= 1
 R99: level_in_group[1,1] - group_ub[1] <= 0
 R100: - 5 level_in_group[1,1] - group_lb[1] >= -6
 R101: group_lb[1] + 6 Zl[1,1] >= 2
 R102: - group_lb[1] - 6 Zl[1,1] >= -7
 R103: - group_ub[1] + 6 Zu[1,1] >= 0
 R104: group_ub[1] - 6 Zu[1,1] >= -5
 R105: level_in_group[1,1] - Zu[1,1] - Zl[1,1] >= -1
 R106: - x[1,0,1] + col_in_group[1,0] + level_in_group[1,1] <= 1
 R107: - x[1,1,1] + col_in_group[1,1] + level_in_group[1,1] <= 1
 R108: - x[1,2,1] + col_in_group[1,2] + level_in_group[1,1] <= 1
 R109: 2 level_in_group[1,2] - group_ub[1] <= 0
 R110: - 4 level_in_group[1,2] - group_lb[1] >= -6
 R111: group_lb[1] + 6 Zl[1,2] >= 3
 R112: - group_lb[1] - 6 Zl[1,2] >= -8
 R113: - group_ub[1] + 6 Zu[1,2] >= -1
 R114: group_ub[1] - 6 Zu[1,2] >= -4
 R115: level_in_group[1,2] - Zu[1,2] - Zl[1,2] >= -1
 R116: - x[1,0,2] + col_in_group[1,0] + level_in_group[1,2] <= 1
 R117: - x[1,1,2] + col_in_group[1,1] + level_in_group[1,2] <= 1
 R118: - x[1,2,2] + col_in_group[1,2] + level_in_group[1,2] <= 1
 R119: 3 level_in_group[1,3] - group_ub[1] <= 0
 R120: - 3 level_in_group[1,3] - group_lb[1] >= -6
 R121: group_lb[1] + 6 Zl[1,3] >= 4
 R122: - group_lb[1] - 6 Zl[1,3] >= -9
 R123: - group_ub[1] + 6 Zu[1,3] >= -2
 R124: group_ub[1] - 6 Zu[1,3] >= -3
 R125: level_in_group[1,3] - Zu[1,3] - Zl[1,3] >= -1
 R126: - x[1,0,3] + col_in_group[1,0] + level_in_group[1,3] <= 1
 R127: - x[1,1,3] + col_in_group[1,1] + level_in_group[1,3] <= 1
 R128: - x[1,2,3] + col_in_group[1,2] + level_in_group[1,3] <= 1
 R129: - group_ub[2] <= 0
 R130: - 6 level_in_group[2,0] - group_lb[2] >= -6
 R131: group_lb[2] + 6 Zl[2,0] >= 1
 R132: - group_lb[2] - 6 Zl[2,0] >= -6
 R133: - group_ub[2] + 6 Zu[2,0] >= 1
 R134: group_ub[2] - 6 Zu[2,0] >= -6
 R135: level_in_group[2,0] - Zu[2,0] - Zl[2,0] >= -1
 R136: - x[2,0,0] + col_in_group[2,0] + level_in_group[2,0] <= 1
 R137: - x[2,1,0] + col_in_group[2,1] + level_in_group[2,0] <= 1
 R138: - x[2,2,0] + col_in_group[2,2] + level_in_group[2,0] <= 1
 R139: level_in_group[2,1] - group_ub[2] <= 0
 R140: - 5 level_in_group[2,1] - group_lb[2] >= -6
 R141: group_lb[2] + 6 Zl[2,1] >= 2
 R142: - group_lb[2] - 6 Zl[2,1] >= -7
 R143: - group_ub[2] + 6 Zu[2,1] >= 0
 R144: group_ub[2] - 6 Zu[2,1] >= -5
 R145: level_in_group[2,1] - Zu[2,1] - Zl[2,1] >= -1
 R146: - x[2,0,1] + col_in_group[2,0] + level_in_group[2,1] <= 1
 R147: - x[2,1,1] + col_in_group[2,1] + level_in_group[2,1] <= 1
 R148: - x[2,2,1] + col_in_group[2,2] + level_in_group[2,1] <= 1
 R149: 2 level_in_group[2,2] - group_ub[2] <= 0
 R150: - 4 level_in_group[2,2] - group_lb[2] >= -6
 R151: group_lb[2] + 6 Zl[2,2] >= 3
 R152: - group_lb[2] - 6 Zl[2,2] >= -8
 R153: - group_ub[2] + 6 Zu[2,2] >= -1
 R154: group_ub[2] - 6 Zu[2,2] >= -4
 R155: level_in_group[2,2] - Zu[2,2] - Zl[2,2] >= -1
 R156: - x[2,0,2] + col_in_group[2,0] + level_in_group[2,2] <= 1
 R157: - x[2,1,2] + col_in_group[2,1] + level_in_group[2,2] <= 1
 R158: - x[2,2,2] + col_in_group[2,2] + level_in_group[2,2] <= 1
 R159: 3 level_in_group[2,3] - group_ub[2] <= 0
 R160: - 3 level_in_group[2,3] - group_lb[2] >= -6
 R161: group_lb[2] + 6 Zl[2,3] >= 4
 R162: - group_lb[2] - 6 Zl[2,3] >= -9
 R163: - group_ub[2] + 6 Zu[2,3] >= -2
 R164: group_ub[2] - 6 Zu[2,3] >= -3
 R165: level_in_group[2,3] - Zu[2,3] - Zl[2,3] >= -1
 R166: - x[2,0,3] + col_in_group[2,0] + level_in_group[2,3] <= 1
 R167: - x[2,1,3] + col_in_group[2,1] + level_in_group[2,3] <= 1
 R168: - x[2,2,3] + col_in_group[2,2] + level_in_group[2,3] <= 1
 R169: group_lb[1] - group_ub[1] + group_range[1] = 0
 R170: - x[1,0,0] + col_in_group[1,0] >= 0
 R171: - x[1,0,0] + level_in_group[1,0] >= 0
 R172: - x[1,0,0] + group[1] >= 0
 R173: - x[1,0,1] + col_in_group[1,0] >= 0
 R174: - x[1,0,1] + level_in_group[1,1] >= 0
 R175: - x[1,0,1] + group[1] >= 0
 R176: - x[1,0,2] + col_in_group[1,0] >= 0
 R177: - x[1,0,2] + level_in_group[1,2] >= 0
 R178: - x[1,0,2] + group[1] >= 0
 R179: - x[1,0,3] + col_in_group[1,0] >= 0
 R180: - x[1,0,3] + level_in_group[1,3] >= 0
 R181: - x[1,0,3] + group[1] >= 0
 R182: - x[1,1,0] + col_in_group[1,1] >= 0
 R183: - x[1,1,0] + level_in_group[1,0] >= 0
 R184: - x[1,1,0] + group[1] >= 0
 R185: - x[1,1,1] + col_in_group[1,1] >= 0
 R186: - x[1,1,1] + level_in_group[1,1] >= 0
 R187: - x[1,1,1] + group[1] >= 0
 R188: - x[1,1,2] + col_in_group[1,1] >= 0
 R189: - x[1,1,2] + level_in_group[1,2] >= 0
 R190: - x[1,1,2] + group[1] >= 0
 R191: - x[1,1,3] + col_in_group[1,1] >= 0
 R192: - x[1,1,3] + level_in_group[1,3] >= 0
 R193: - x[1,1,3] + group[1] >= 0
 R194: - x[1,2,0] + col_in_group[1,2] >= 0
 R195: - x[1,2,0] + level_in_group[1,0] >= 0
 R196: - x[1,2,0] + group[1] >= 0
 R197: - x[1,2,1] + col_in_group[1,2] >= 0
 R198: - x[1,2,1] + level_in_group[1,1] >= 0
 R199: - x[1,2,1] + group[1] >= 0
 R200: - x[1,2,2] + col_in_group[1,2] >= 0
 R201: - x[1,2,2] + level_in_group[1,2] >= 0
 R202: - x[1,2,2] + group[1] >= 0
 R203: - x[1,2,3] + col_in_group[1,2] >= 0
 R204: - x[1,2,3] + level_in_group[1,3] >= 0
 R205: - x[1,2,3] + group[1] >= 0
 R206: - group_ub[0] <= 0
 R207: - 6 level_in_group[0,0] - group_lb[0] >= -6
 R208: group_lb[0] + 6 Zl[0,0] >= 1
 R209: - group_lb[0] - 6 Zl[0,0] >= -6
 R210: - group_ub[0] + 6 Zu[0,0] >= 1
 R211: group_ub[0] - 6 Zu[0,0] >= -6
 R212: level_in_group[0,0] - Zu[0,0] - Zl[0,0] >= -1
 R213: - x[0,0,0] + col_in_group[0,0] + level_in_group[0,0] <= 1
 R214: - x[0,1,0] + col_in_group[0,1] + level_in_group[0,0] <= 1
 R215: - x[0,2,0] + col_in_group[0,2] + level_in_group[0,0] <= 1
 R216: level_in_group[0,1] - group_ub[0] <= 0
 R217: - 5 level_in_group[0,1] - group_lb[0] >= -6
 R218: group_lb[0] + 6 Zl[0,1] >= 2
 R219: - group_lb[0] - 6 Zl[0,1] >= -7
 R220: - group_ub[0] + 6 Zu[0,1] >= 0
 R221: group_ub[0] - 6 Zu[0,1] >= -5
 R222: level_in_group[0,1] - Zu[0,1] - Zl[0,1] >= -1
 R223: - x[0,0,1] + col_in_group[0,0] + level_in_group[0,1] <= 1
 R224: - x[0,1,1] + col_in_group[0,1] + level_in_group[0,1] <= 1
 R225: - x[0,2,1] + col_in_group[0,2] + level_in_group[0,1] <= 1
 R226: 2 level_in_group[0,2] - group_ub[0] <= 0
 R227: - 4 level_in_group[0,2] - group_lb[0] >= -6
 R228: group_lb[0] + 6 Zl[0,2] >= 3
 R229: - group_lb[0] - 6 Zl[0,2] >= -8
 R230: - group_ub[0] + 6 Zu[0,2] >= -1
 R231: group_ub[0] - 6 Zu[0,2] >= -4
 R232: level_in_group[0,2] - Zu[0,2] - Zl[0,2] >= -1
 R233: - x[0,0,2] + col_in_group[0,0] + level_in_group[0,2] <= 1
 R234: - x[0,1,2] + col_in_group[0,1] + level_in_group[0,2] <= 1
 R235: - x[0,2,2] + col_in_group[0,2] + level_in_group[0,2] <= 1
 R236: 3 level_in_group[0,3] - group_ub[0] <= 0
 R237: - 3 level_in_group[0,3] - group_lb[0] >= -6
 R238: group_lb[0] + 6 Zl[0,3] >= 4
 R239: - group_lb[0] - 6 Zl[0,3] >= -9
 R240: - group_ub[0] + 6 Zu[0,3] >= -2
 R241: group_ub[0] - 6 Zu[0,3] >= -3
 R242: level_in_group[0,3] - Zu[0,3] - Zl[0,3] >= -1
 R243: - x[0,0,3] + col_in_group[0,0] + level_in_group[0,3] <= 1
 R244: - x[0,1,3] + col_in_group[0,1] + level_in_group[0,3] <= 1
 R245: - x[0,2,3] + col_in_group[0,2] + level_in_group[0,3] <= 1
 R246: - group_ub[1] <= 0
 R247: - 6 level_in_group[1,0] - group_lb[1] >= -6
 R248: group_lb[1] + 6 Zl[1,0] >= 1
 R249: - group_lb[1] - 6 Zl[1,0] >= -6
 R250: - group_ub[1] + 6 Zu[1,0] >= 1
 R251: group_ub[1] - 6 Zu[1,0] >= -6
 R252: level_in_group[1,0] - Zu[1,0] - Zl[1,0] >= -1
 R253: - x[1,0,0] + col_in_group[1,0] + level_in_group[1,0] <= 1
 R254: - x[1,1,0] + col_in_group[1,1] + level_in_group[1,0] <= 1
 R255: - x[1,2,0] + col_in_group[1,2] + level_in_group[1,0] <= 1
 R256: level_in_group[1,1] - group_ub[1] <= 0
 R257: - 5 level_in_group[1,1] - group_lb[1] >= -6
 R258: group_lb[1] + 6 Zl[1,1] >= 2
 R259: - group_lb[1] - 6 Zl[1,1] >= -7
 R260: - group_ub[1] + 6 Zu[1,1] >= 0
 R261: group_ub[1] - 6 Zu[1,1] >= -5
 R262: level_in_group[1,1] - Zu[1,1] - Zl[1,1] >= -1
 R263: - x[1,0,1] + col_in_group[1,0] + level_in_group[1,1] <= 1
 R264: - x[1,1,1] + col_in_group[1,1] + level_in_group[1,1] <= 1
 R265: - x[1,2,1] + col_in_group[1,2] + level_in_group[1,1] <= 1
 R266: 2 level_in_group[1,2] - group_ub[1] <= 0
 R267: - 4 level_in_group[1,2] - group_lb[1] >= -6
 R268: group_lb[1] + 6 Zl[1,2] >= 3
 R269: - group_lb[1] - 6 Zl[1,2] >= -8
 R270: - group_ub[1] + 6 Zu[1,2] >= -1
 R271: group_ub[1] - 6 Zu[1,2] >= -4
 R272: level_in_group[1,2] - Zu[1,2] - Zl[1,2] >= -1
 R273: - x[1,0,2] + col_in_group[1,0] + level_in_group[1,2] <= 1
 R274: - x[1,1,2] + col_in_group[1,1] + level_in_group[1,2] <= 1
 R275: - x[1,2,2] + col_in_group[1,2] + level_in_group[1,2] <= 1
 R276: 3 level_in_group[1,3] - group_ub[1] <= 0
 R277: - 3 level_in_group[1,3] - group_lb[1] >= -6
 R278: group_lb[1] + 6 Zl[1,3] >= 4
 R279: - group_lb[1] - 6 Zl[1,3] >= -9
 R280: - group_ub[1] + 6 Zu[1,3] >= -2
 R281: group_ub[1] - 6 Zu[1,3] >= -3
 R282: level_in_group[1,3] - Zu[1,3] - Zl[1,3] >= -1
 R283: - x[1,0,3] + col_in_group[1,0] + level_in_group[1,3] <= 1
 R284: - x[1,1,3] + col_in_group[1,1] + level_in_group[1,3] <= 1
 R285: - x[1,2,3] + col_in_group[1,2] + level_in_group[1,3] <= 1
 R286: - group_ub[2] <= 0
 R287: - 6 level_in_group[2,0] - group_lb[2] >= -6
 R288: group_lb[2] + 6 Zl[2,0] >= 1
 R289: - group_lb[2] - 6 Zl[2,0] >= -6
 R290: - group_ub[2] + 6 Zu[2,0] >= 1
 R291: group_ub[2] - 6 Zu[2,0] >= -6
 R292: level_in_group[2,0] - Zu[2,0] - Zl[2,0] >= -1
 R293: - x[2,0,0] + col_in_group[2,0] + level_in_group[2,0] <= 1
 R294: - x[2,1,0] + col_in_group[2,1] + level_in_group[2,0] <= 1
 R295: - x[2,2,0] + col_in_group[2,2] + level_in_group[2,0] <= 1
 R296: level_in_group[2,1] - group_ub[2] <= 0
 R297: - 5 level_in_group[2,1] - group_lb[2] >= -6
 R298: group_lb[2] + 6 Zl[2,1] >= 2
 R299: - group_lb[2] - 6 Zl[2,1] >= -7
 R300: - group_ub[2] + 6 Zu[2,1] >= 0
 R301: group_ub[2] - 6 Zu[2,1] >= -5
 R302: level_in_group[2,1] - Zu[2,1] - Zl[2,1] >= -1
 R303: - x[2,0,1] + col_in_group[2,0] + level_in_group[2,1] <= 1
 R304: - x[2,1,1] + col_in_group[2,1] + level_in_group[2,1] <= 1
 R305: - x[2,2,1] + col_in_group[2,2] + level_in_group[2,1] <= 1
 R306: 2 level_in_group[2,2] - group_ub[2] <= 0
 R307: - 4 level_in_group[2,2] - group_lb[2] >= -6
 R308: group_lb[2] + 6 Zl[2,2] >= 3
 R309: - group_lb[2] - 6 Zl[2,2] >= -8
 R310: - group_ub[2] + 6 Zu[2,2] >= -1
 R311: group_ub[2] - 6 Zu[2,2] >= -4
 R312: level_in_group[2,2] - Zu[2,2] - Zl[2,2] >= -1
 R313: - x[2,0,2] + col_in_group[2,0] + level_in_group[2,2] <= 1
 R314: - x[2,1,2] + col_in_group[2,1] + level_in_group[2,2] <= 1
 R315: - x[2,2,2] + col_in_group[2,2] + level_in_group[2,2] <= 1
 R316: 3 level_in_group[2,3] - group_ub[2] <= 0
 R317: - 3 level_in_group[2,3] - group_lb[2] >= -6
 R318: group_lb[2] + 6 Zl[2,3] >= 4
 R319: - group_lb[2] - 6 Zl[2,3] >= -9
 R320: - group_ub[2] + 6 Zu[2,3] >= -2
 R321: group_ub[2] - 6 Zu[2,3] >= -3
 R322: level_in_group[2,3] - Zu[2,3] - Zl[2,3] >= -1
 R323: - x[2,0,3] + col_in_group[2,0] + level_in_group[2,3] <= 1
 R324: - x[2,1,3] + col_in_group[2,1] + level_in_group[2,3] <= 1
 R325: - x[2,2,3] + col_in_group[2,2] + level_in_group[2,3] <= 1
 R326: group_lb[2] - group_ub[2] + group_range[2] = 0
 R327: - x[2,0,0] + col_in_group[2,0] >= 0
 R328: - x[2,0,0] + level_in_group[2,0] >= 0
 R329: - x[2,0,0] + group[2] >= 0
 R330: - x[2,0,1] + col_in_group[2,0] >= 0
 R331: - x[2,0,1] + level_in_group[2,1] >= 0
 R332: - x[2,0,1] + group[2] >= 0
 R333: - x[2,0,2] + col_in_group[2,0] >= 0
 R334: - x[2,0,2] + level_in_group[2,2] >= 0
 R335: - x[2,0,2] + group[2] >= 0
 R336: - x[2,0,3] + col_in_group[2,0] >= 0
 R337: - x[2,0,3] + level_in_group[2,3] >= 0
 R338: - x[2,0,3] + group[2] >= 0
 R339: - x[2,1,0] + col_in_group[2,1] >= 0
 R340: - x[2,1,0] + level_in_group[2,0] >= 0
 R341: - x[2,1,0] + group[2] >= 0
 R342: - x[2,1,1] + col_in_group[2,1] >= 0
 R343: - x[2,1,1] + level_in_group[2,1] >= 0
 R344: - x[2,1,1] + group[2] >= 0
 R345: - x[2,1,2] + col_in_group[2,1] >= 0
 R346: - x[2,1,2] + level_in_group[2,2] >= 0
 R347: - x[2,1,2] + group[2] >= 0
 R348: - x[2,1,3] + col_in_group[2,1] >= 0
 R349: - x[2,1,3] + level_in_group[2,3] >= 0
 R350: - x[2,1,3] + group[2] >= 0
 R351: - x[2,2,0] + col_in_group[2,2] >= 0
 R352: - x[2,2,0] + level_in_group[2,0] >= 0
 R353: - x[2,2,0] + group[2] >= 0
 R354: - x[2,2,1] + col_in_group[2,2] >= 0
 R355: - x[2,2,1] + level_in_group[2,1] >= 0
 R356: - x[2,2,1] + group[2] >= 0
 R357: - x[2,2,2] + col_in_group[2,2] >= 0
 R358: - x[2,2,2] + level_in_group[2,2] >= 0
 R359: - x[2,2,2] + group[2] >= 0
 R360: - x[2,2,3] + col_in_group[2,2] >= 0
 R361: - x[2,2,3] + level_in_group[2,3] >= 0
 R362: - x[2,2,3] + group[2] >= 0
 R363: - group_ub[0] <= 0
 R364: - 6 level_in_group[0,0] - group_lb[0] >= -6
 R365: group_lb[0] + 6 Zl[0,0] >= 1
 R366: - group_lb[0] - 6 Zl[0,0] >= -6
 R367: - group_ub[0] + 6 Zu[0,0] >= 1
 R368: group_ub[0] - 6 Zu[0,0] >= -6
 R369: level_in_group[0,0] - Zu[0,0] - Zl[0,0] >= -1
 R370: - x[0,0,0] + col_in_group[0,0] + level_in_group[0,0] <= 1
 R371: - x[0,1,0] + col_in_group[0,1] + level_in_group[0,0] <= 1
 R372: - x[0,2,0] + col_in_group[0,2] + level_in_group[0,0] <= 1
 R373: level_in_group[0,1] - group_ub[0] <= 0
 R374: - 5 level_in_group[0,1] - group_lb[0] >= -6
 R375: group_lb[0] + 6 Zl[0,1] >= 2
 R376: - group_lb[0] - 6 Zl[0,1] >= -7
 R377: - group_ub[0] + 6 Zu[0,1] >= 0
 R378: group_ub[0] - 6 Zu[0,1] >= -5
 R379: level_in_group[0,1] - Zu[0,1] - Zl[0,1] >= -1
 R380: - x[0,0,1] + col_in_group[0,0] + level_in_group[0,1] <= 1
 R381: - x[0,1,1] + col_in_group[0,1] + level_in_group[0,1] <= 1
 R382: - x[0,2,1] + col_in_group[0,2] + level_in_group[0,1] <= 1
 R383: 2 level_in_group[0,2] - group_ub[0] <= 0
 R384: - 4 level_in_group[0,2] - group_lb[0] >= -6
 R385: group_lb[0] + 6 Zl[0,2] >= 3
 R386: - group_lb[0] - 6 Zl[0,2] >= -8
 R387: - group_ub[0] + 6 Zu[0,2] >= -1
 R388: group_ub[0] - 6 Zu[0,2] >= -4
 R389: level_in_group[0,2] - Zu[0,2] - Zl[0,2] >= -1
 R390: - x[0,0,2] + col_in_group[0,0] + level_in_group[0,2] <= 1
 R391: - x[0,1,2] + col_in_group[0,1] + level_in_group[0,2] <= 1
 R392: - x[0,2,2] + col_in_group[0,2] + level_in_group[0,2] <= 1
 R393: 3 level_in_group[0,3] - group_ub[0] <= 0
 R394: - 3 level_in_group[0,3] - group_lb[0] >= -6
 R395: group_lb[0] + 6 Zl[0,3] >= 4
 R396: - group_lb[0] - 6 Zl[0,3] >= -9
 R397: - group_ub[0] + 6 Zu[0,3] >= -2
 R398: group_ub[0] - 6 Zu[0,3] >= -3
 R399: level_in_group[0,3] - Zu[0,3] - Zl[0,3] >= -1
 R400: - x[0,0,3] + col_in_group[0,0] + level_in_group[0,3] <= 1
 R401: - x[0,1,3] + col_in_group[0,1] + level_in_group[0,3] <= 1
 R402: - x[0,2,3] + col_in_group[0,2] + level_in_group[0,3] <= 1
 R403: - group_ub[1] <= 0
 R404: - 6 level_in_group[1,0] - group_lb[1] >= -6
 R405: group_lb[1] + 6 Zl[1,0] >= 1
 R406: - group_lb[1] - 6 Zl[1,0] >= -6
 R407: - group_ub[1] + 6 Zu[1,0] >= 1
 R408: group_ub[1] - 6 Zu[1,0] >= -6
 R409: level_in_group[1,0] - Zu[1,0] - Zl[1,0] >= -1
 R410: - x[1,0,0] + col_in_group[1,0] + level_in_group[1,0] <= 1
 R411: - x[1,1,0] + col_in_group[1,1] + level_in_group[1,0] <= 1
 R412: - x[1,2,0] + col_in_group[1,2] + level_in_group[1,0] <= 1
 R413: level_in_group[1,1] - group_ub[1] <= 0
 R414: - 5 level_in_group[1,1] - group_lb[1] >= -6
 R415: group_lb[1] + 6 Zl[1,1] >= 2
 R416: - group_lb[1] - 6 Zl[1,1] >= -7
 R417: - group_ub[1] + 6 Zu[1,1] >= 0
 R418: group_ub[1] - 6 Zu[1,1] >= -5
 R419: level_in_group[1,1] - Zu[1,1] - Zl[1,1] >= -1
 R420: - x[1,0,1] + col_in_group[1,0] + level_in_group[1,1] <= 1
 R421: - x[1,1,1] + col_in_group[1,1] + level_in_group[1,1] <= 1
 R422: - x[1,2,1] + col_in_group[1,2] + level_in_group[1,1] <= 1
 R423: 2 level_in_group[1,2] - group_ub[1] <= 0
 R424: - 4 level_in_group[1,2] - group_lb[1] >= -6
 R425: group_lb[1] + 6 Zl[1,2] >= 3
 R426: - group_lb[1] - 6 Zl[1,2] >= -8
 R427: - group_ub[1] + 6 Zu[1,2] >= -1
 R428: group_ub[1] - 6 Zu[1,2] >= -4
 R429: level_in_group[1,2] - Zu[1,2] - Zl[1,2] >= -1
 R430: - x[1,0,2] + col_in_group[1,0] + level_in_group[1,2] <= 1
 R431: - x[1,1,2] + col_in_group[1,1] + level_in_group[1,2] <= 1
 R432: - x[1,2,2] + col_in_group[1,2] + level_in_group[1,2] <= 1
 R433: 3 level_in_group[1,3] - group_ub[1] <= 0
 R434: - 3 level_in_group[1,3] - group_lb[1] >= -6
 R435: group_lb[1] + 6 Zl[1,3] >= 4
 R436: - group_lb[1] - 6 Zl[1,3] >= -9
 R437: - group_ub[1] + 6 Zu[1,3] >= -2
 R438: group_ub[1] - 6 Zu[1,3] >= -3
 R439: level_in_group[1,3] - Zu[1,3] - Zl[1,3] >= -1
 R440: - x[1,0,3] + col_in_group[1,0] + level_in_group[1,3] <= 1
 R441: - x[1,1,3] + col_in_group[1,1] + level_in_group[1,3] <= 1
 R442: - x[1,2,3] + col_in_group[1,2] + level_in_group[1,3] <= 1
 R443: - group_ub[2] <= 0
 R444: - 6 level_in_group[2,0] - group_lb[2] >= -6
 R445: group_lb[2] + 6 Zl[2,0] >= 1
 R446: - group_lb[2] - 6 Zl[2,0] >= -6
 R447: - group_ub[2] + 6 Zu[2,0] >= 1
 R448: group_ub[2] - 6 Zu[2,0] >= -6
 R449: level_in_group[2,0] - Zu[2,0] - Zl[2,0] >= -1
 R450: - x[2,0,0] + col_in_group[2,0] + level_in_group[2,0] <= 1
 R451: - x[2,1,0] + col_in_group[2,1] + level_in_group[2,0] <= 1
 R452: - x[2,2,0] + col_in_group[2,2] + level_in_group[2,0] <= 1
 R453: level_in_group[2,1] - group_ub[2] <= 0
 R454: - 5 level_in_group[2,1] - group_lb[2] >= -6
 R455: group_lb[2] + 6 Zl[2,1] >= 2
 R456: - group_lb[2] - 6 Zl[2,1] >= -7
 R457: - group_ub[2] + 6 Zu[2,1] >= 0
 R458: group_ub[2] - 6 Zu[2,1] >= -5
 R459: level_in_group[2,1] - Zu[2,1] - Zl[2,1] >= -1
 R460: - x[2,0,1] + col_in_group[2,0] + level_in_group[2,1] <= 1
 R461: - x[2,1,1] + col_in_group[2,1] + level_in_group[2,1] <= 1
 R462: - x[2,2,1] + col_in_group[2,2] + level_in_group[2,1] <= 1
 R463: 2 level_in_group[2,2] - group_ub[2] <= 0
 R464: - 4 level_in_group[2,2] - group_lb[2] >= -6
 R465: group_lb[2] + 6 Zl[2,2] >= 3
 R466: - group_lb[2] - 6 Zl[2,2] >= -8
 R467: - group_ub[2] + 6 Zu[2,2] >= -1
 R468: group_ub[2] - 6 Zu[2,2] >= -4
 R469: level_in_group[2,2] - Zu[2,2] - Zl[2,2] >= -1
 R470: - x[2,0,2] + col_in_group[2,0] + level_in_group[2,2] <= 1
 R471: - x[2,1,2] + col_in_group[2,1] + level_in_group[2,2] <= 1
 R472: - x[2,2,2] + col_in_group[2,2] + level_in_group[2,2] <= 1
 R473: 3 level_in_group[2,3] - group_ub[2] <= 0
 R474: - 3 level_in_group[2,3] - group_lb[2] >= -6
 R475: group_lb[2] + 6 Zl[2,3] >= 4
 R476: - group_lb[2] - 6 Zl[2,3] >= -9
 R477: - group_ub[2] + 6 Zu[2,3] >= -2
 R478: group_ub[2] - 6 Zu[2,3] >= -3
 R479: level_in_group[2,3] - Zu[2,3] - Zl[2,3] >= -1
 R480: - x[2,0,3] + col_in_group[2,0] + level_in_group[2,3] <= 1
 R481: - x[2,1,3] + col_in_group[2,1] + level_in_group[2,3] <= 1
 R482: - x[2,2,3] + col_in_group[2,2] + level_in_group[2,3] <= 1
Bounds
 group_lb[0] <= 4
 group_lb[1] <= 4
 group_lb[2] <= 4
 group_ub[0] <= 4
 group_ub[1] <= 4
 group_ub[2] <= 4
 group_range[0] <= 4
 group_range[1] <= 4
 group_range[2] <= 4
Binaries
 x[0,0,0] x[1,0,0] x[2,0,0] x[0,1,0] x[1,1,0] x[2,1,0] x[0,2,0] x[1,2,0]
 x[2,2,0] x[0,0,1] x[1,0,1] x[2,0,1] x[0,1,1] x[1,1,1] x[2,1,1] x[0,2,1]
 x[1,2,1] x[2,2,1] x[0,0,2] x[1,0,2] x[2,0,2] x[0,1,2] x[1,1,2] x[2,1,2]
 x[0,2,2] x[1,2,2] x[2,2,2] x[0,0,3] x[1,0,3] x[2,0,3] x[0,1,3] x[1,1,3]
 x[2,1,3] x[0,2,3] x[1,2,3] x[2,2,3] group[0] group[1] group[2]
 col_in_group[0,0] col_in_group[0,1] col_in_group[0,2] col_in_group[1,0]
 col_in_group[1,1] col_in_group[1,2] col_in_group[2,0] col_in_group[2,1]
 col_in_group[2,2] level_in_group[0,0] level_in_group[0,1]
 level_in_group[0,2] level_in_group[0,3] level_in_group[1,0]
 level_in_group[1,1] level_in_group[1,2] level_in_group[1,3]
 level_in_group[2,0] level_in_group[2,1] level_in_group[2,2]
 level_in_group[2,3] Zu[0,0] Zu[0,1] Zu[0,2] Zu[0,3] Zu[1,0] Zu[1,1]
 Zu[1,2] Zu[1,3] Zu[2,0] Zu[2,1] Zu[2,2] Zu[2,3] Zl[0,0] Zl[0,1] Zl[0,2]
 Zl[0,3] Zl[1,0] Zl[1,1] Zl[1,2] Zl[1,3] Zl[2,0] Zl[2,1] Zl[2,2] Zl[2,3]
Generals
 group_lb[0] group_lb[1] group_lb[2] group_ub[0] group_ub[1] group_ub[2]
 group_range[0] group_range[1] group_range[2]
End
